#### set simulation box #####
units		metal		## use metal unit system - see lammps manual
boundary	s s p		## make simulation box periodic only along z direction. x and y are free surfaces

atom_style	atomic		## default atom style for metals 

## define crystal structure and lattice constant a0
lattice fcc 4.070 orient x -1 1 0 orient y -1 -1 2 orient z 1 1 1 ##lattice constant for gold

region		wnanowire block -11.5116984 11.5116984 -11.5116984 11.5116984 -70.49446787 70.49446787 units box #make whole nanowire region - in the shape of a box
create_box	1 wnanowire							## create the simulation box, allowing a max of 1 species					

region		bbnanowire cylinder z 0 0 11.5116984 -70.49446787 -35.24723393 units box #make very bottom section of nanowire
lattice		fcc 4.070 orient	x -1 1 0 orient y -1 -1 2 orient z 1 1 1 ## define direction vectors, i.e., set x=[-1 1 0], y=[-1 -1 2], z=[1 1 1] 
create_atoms 1 region bbnanowire 

region		bnanowire cylinder z 0 0 11.5116984 -35.24723393 0 units box #make middle bottom section of nanowire
lattice		fcc 4.070 orient	x -1 1 0 orient y 1 1 2 orient z 1 1 -1 ## define direction vectors, i.e., set x=[-1 1 0], y=[1 1 2], z=[1 1 -1] 
create_atoms 1 region bnanowire 

region		unanowire cylinder z 0 0 11.5116984 0 35.24723393 units box #make middle upper section of nanowire
lattice		fcc 4.070 orient	x -1 1 0 orient y -1 -1 2 orient z 1 1 1 ## define direction vectors, i.e., set x=[-1 1 0], y=[-1 -1 2], z=[1 1 1] 
create_atoms 1 region unanowire 

region		uunanowire cylinder z 0 0 11.5116984 35.24723393 70.49446787 units box #make very upper section of nanowire
lattice		fcc 4.070 orient	x -1 1 0 orient y 1 1 2 orient z 1 1 -1 ## define direction vectors, i.e., set x=[-1 1 0], y=[1 1 2], z=[1 1 -1]  
create_atoms 1 region uunanowire 

# ---------- group upper and lower nanowire --------------------- 
group unanowire region unanowire
group bnanowire region bnanowire
group uunanowire region uunanowire
group bbnanowire region bbnanowire  
# ---------- Define Interatomic Potential ---------------------									

pair_style	eam/alloy								## set interatomic potential style to be EAM/Alloy
pair_coeff	* * Au-Grochola-JCP05.eam.alloy Au #potential used by paper

neighbor	0.3 bin							## define parameters for neighbor list
neigh_modify	delay 5						## define parameters for neighbor list

# ---------- delete overlapping atoms --------------------- 
delete_atoms overlap 0.35 bnanowire unanowire
delete_atoms overlap 0.35 bbnanowire bnanowire
delete_atoms overlap 0.35 unanowire uunanowire

compute         c1 all pe/atom				### compute potential energy per atom
compute         c2 all stress/atom	NULL	### compute stress tensor per atom
compute         c3 all cna/atom 3.4	## compute CNA

thermo 10 ## Output system information every 10 timesteps
#### Output step No., temperature, potential energy, total energy,
#### total pressure, pressure component, box volume

thermo_style custom step temp pe etotal press pxx pyy pzz pxy pxz pyz vol	
thermo_modify format float %10.3f                   ## set output format
timestep 0.005                                      ## set timestep size

fix 1 all box/relax z 0.0 vmax 0.001 #external conditions, 0 pressure in z with limitation 0.001 in block volume change
minimize        1.0e-8 1.0e-10 1000 10000 ## energy minimization
unfix 1

### system equilibrium by NPT ensemble to relax the pressure ###
dump 1a all custom 200 dump_FCCAu_Perfect_001.atom id type x y z c_c1 c_c2[1] c_c2[2] c_c2[3] c_c3
velocity all create 300.0 4928459 mom yes rot yes dist gaussian   ## Assign velocities to all atoms (assume temperature of 300K)
#define a NPT ensemble for the system
fix 1f all npt temp 300.0 300.0 0.5 z 0.0 0.0 5.0 #NPT ensemble for the z direction, at a temperature of 300K
run  20000   	## run the simulation for 20000 steps
###Write a binary restart file of the current state of the simulation
write_restart restart.equil_NPT
undump 1a
unfix 1f	## NPT run complete
###############################################################

